data/instances/vrp_files/train_60.vrp
NAME : 60
COMMENT : Generated instance No. 60
TYPE : CVRP
DIMENSION : 21
EDGE_WEIGHT_TYPE : EUC_2D
CAPACITY : 30
NODE_COORD_SECTION
 1 100 167
 2 921 583
 3 592 354
 4 51 31
 5 423 84
 6 606 880
 7 882 659
 8 211 862
 9 886 196
 10 737 286
 11 802 997
 12 30 897
 13 622 973
 14 465 847
 15 62 335
 16 67 975
 17 816 852
 18 937 85
 19 385 71
 20 210 229
 21 469 268
DEMAND_SECTION
1 0
2 5
3 4
4 3
5 5
6 9
7 8
8 8
9 8
10 8
11 7
12 8
13 8
14 8
15 10
16 7
17 1
18 4
19 4
20 5
21 10
DEPOT_SECTION
 1
 -1
EOF